1945.0,1945.0,1945.0,1945.0,1954.0,1954.0,1954.0,1954.0,1954.0,1954.0,1954.0,1954.0,1954.0,1957.0,1957.0,1975.0,1975.0,1975.0,1975.0,1975.0,1984.0,1984.0,1993.0,1993.0,1993.0,1993.0,1993.0,1993.0,1993.0,1993.0,2002.0,2002.0,2002.0,2002.0,2002.0,2005.0,2005.0,2005.0,2014.0,2014.0,2014.0,2014.0,2014.0,2023.0,2023.0,2023.0,2023.0,2023.0,2020.0,2020.0,2020.0,2020.0,2029.0,2029.0,2032.0,2032.0,2029.0,2524.0,2524.0,2533.0,2533.0,2533.0,2533.0,2533.0,2533.0,2533.0,2533.0,2533.0,2533.0,2533.0,2533.0,2533.0,2533.0,2533.0,2533.0,2533.0,2533.0,2533.0,2533.0,2542.0,2542.0,2536.0,2536.0,2545.0,2545.0,2545.0,2545.0,2554.0,2554.0,2554.0,2554.0,2554.0,2554.0,2554.0,2554.0,2554.0,2554.0,2554.0,2554.0,2554.0,2554.0,2563.0,2554.0,2554.0,2554.0,2554.0,2554.0,2563.0,2572.0,2575.0,2575.0,2575.0,2575.0,2584.0,2584.0,2584.0,2584.0,2584.0,2593.0,2593.0,2593.0,2593.0,2602.0,2611.0,2611.0,2620.0,2620.0,2620.0,2620.0,2620.0,2620.0,2629.0,2629.0,2647.0,2665.0,2665.0,2665.0,2665.0,2665.0,2665.0,2665.0,2665.0,2665.0,2665.0,2665.0,2665.0,2665.0,2665.0,2665.0,2665.0,2665.0,2665.0,2656.0,2656.0,2656.0,2665.0,2665.0,2665.0,2665.0,2665.0,2665.0,2665.0,2665.0,2665.0,2665.0,2665.0,2665.0,2665.0,2674.0,2674.0,2683.0,2683.0,2683.0,2701.0,2710.0,2710.0,2710.0,3288.0,3288.0,3288.0,3288.0,3288.0,3288.0,3288.0,3294.0,3294.0,3294.0,3294.0,3294.0,3294.0,3294.0,3294.0,3294.0,3294.0,3294.0,3294.0,3303.0,3303.0,3303.0,3303.0,3303.0,3303.0,3303.0,3303.0,3303.0,3303.0,3303.0,3303.0,3303.0,3303.0,3294.0,3294.0,3294.0,3303.0,3303.0,3303.0,3303.0,3303.0,3312.0,3312.0,3312.0,3312.0,3312.0,3312.0,3321.0,3321.0,3321.0,2770.0,2779.0,2779.0,2779.0,2779.0,3321.0,3321.0,3321.0,3321.0,3321.0,3321.0,3321.0,3321.0,3321.0,3321.0,3321.0,3321.0,3330.0,3330.0,3330.0,3330.0,3330.0,3330.0,3330.0,3330.0,3330.0,3330.0,3339.0,3339.0,3339.0,3339.0,3339.0,3339.0,3339.0,3339.0,3339.0,3339.0,3348.0,3353.0,3353.0,3353.0,3353.0,3353.0,3353.0,3353.0,3353.0,3353.0,3353.0,3353.0,3353.0,3353.0,3353.0,3353.0,3353.0,3353.0,3353.0,3353.0,3362.0,3362.0,3362.0,3371.0,3371.0,3371.0,3371.0,3371.0,3371.0,3371.0,3365.0,3365.0,3365.0,3365.0,3365.0,3365.0,3365.0,3365.0,3365.0,3365.0,3365.0,3365.0,3365.0,3374.0,3374.0,3383.0,3383.0,3383.0,3383.0,3383.0,3383.0,3383.0,3377.0,3386.0,3386.0,3386.0,3386.0,3386.0,3386.0,3386.0,3386.0,3386.0,3386.0,3386.0,3386.0,3386.0,3386.0,3386.0,3386.0,3386.0,3386.0,3395.0,3395.0,3395.0,3395.0,3395.0,3395.0,3395.0,3395.0,3404.0,3404.0,3404.0,3404.0,3404.0,3404.0,3404.0,3413.0,3413.0,3413.0,3422.0,3422.0,3422.0,3422.0,3422.0,3422.0,3440.0,3440.0,3449.0,3449.0,3458.0,3458.0,3458.0,3458.0,3449.0,3453.0,3453.0,3462.0,3462.0,3453.0,3453.0,3453.0,3453.0,3462.0,3462.0,3462.0,3468.0,3468.0,3468.0,3468.0,3468.0,3468.0,3468.0,3468.0,3468.0,3477.0,3486.0,3486.0,3486.0,3486.0,3486.0,3495.0,3495.0,3495.0,3495.0,3495.0,3495.0,3495.0